(set-info :smt-lib-version 2.6)
(set-logic LRA)
(set-info :source |
   Monniaux, David; Quantifier Elimination by Lazy Model Enumeration, CAV 2010
|)
(set-info :category "random")
; ./Mjollnir_examples/B1/formula_043.m
(set-info :status unsat)
(assert
 (forall ((|v9:0| Real) )(exists ((|v8:1| Real) )(forall ((|v7:2| Real) )(exists ((|v6:3| Real) )(forall ((|v5:4| Real) )(exists ((|v4:5| Real) )(forall ((|v3:6| Real) )(exists ((|v2:7| Real) )(forall ((|v1:8| Real) )(exists ((|v0:9| Real) )(let ((?x191 (+ (+ (* (- 1) |v7:2|) (* 4 |v0:9|)) (* 4 |v1:8|))))
(let ((?x113 (- 5)))
(let ((?x183 (+ (+ (* 9 |v3:6|) (* 20 |v7:2|)) (* (- 15) |v0:9|))))
(let ((?x175 (+ (+ (* (- 6) |v6:3|) (* 14 |v6:3|)) (* (- 14) |v2:7|))))
(let (($x168 (<= (+ (+ (* 15 |v6:3|) |v7:2|) (* 3 |v2:7|)) (- 10))))
(let (($x194 (or (or $x168 (<= ?x175 (- 2))) (or (<= ?x183 ?x113) (<= ?x191 (- 14))))))
(let ((?x158 (+ (+ (* 19 |v0:9|) (* 20 |v6:3|)) (* 18 |v8:1|))))
(let ((?x69 8))
(let ((?x149 (+ (+ (* (- 17) |v2:7|) (* 9 |v2:7|)) (* 9 |v9:0|))))
(let ((?x140 (+ (+ (* (- 3) |v7:2|) (* (- 10) |v7:2|)) (* 2 |v1:8|))))
(let ((?x130 (+ (+ (* 19 |v8:1|) (* (- 20) |v8:1|)) (* 7 |v7:2|))))
(let (($x161 (or (and (<= ?x130 (- 13)) (<= ?x140 (- 7))) (or (<= ?x149 ?x69) (<= ?x158 7)))))
(let ((?x19 5))
(let (($x118 (<= (+ (+ (* (- 12) |v0:9|) (* ?x113 |v7:2|)) (* ?x113 |v1:8|)) ?x19)))
(let ((?x109 (+ (+ (* (- 19) |v1:8|) (* (- 17) |v8:1|)) (* (- 12) |v7:2|))))
(let ((?x100 (+ (+ (* 16 |v4:5|) (* 14 |v6:3|)) (* (- 16) |v1:8|))))
(let ((?x91 (+ (+ (* (- 13) |v6:3|) (* ?x19 |v8:1|)) (* 2 |v8:1|))))
(let (($x120 (and (and (<= ?x91 (- 7)) (<= ?x100 6)) (or (<= ?x109 ?x69) $x118))))
(let ((?x66 (- 12)))
(let ((?x78 (+ (+ (* ?x66 |v3:6|) (* (- 4) |v3:6|)) (* (- 18) |v6:3|))))
(let ((?x68 (+ (+ (* (- 15) |v6:3|) (* (- 16) |v8:1|)) (* ?x66 |v2:7|))))
(let ((?x52 (- 17)))
(let ((?x51 (+ (+ (* 14 |v5:4|) (* 15 |v0:9|)) (* 6 |v9:0|))))
(let ((?x36 (* 19 |v0:9|)))
(let (($x39 (<= (+ (+ (* 14 |v1:8|) (* (- 18) |v4:5|)) ?x36) 11)))
(let (($x121 (and (and (or $x39 (<= ?x51 ?x52)) (or (<= ?x68 ?x69) (<= ?x78 ?x66))) $x120)))
(let ((?x22 4))
(let ((?x21 (+ (+ (* (- 8) |v7:2|) (* (- 6) |v4:5|)) (* ?x19 |v6:3|))))
(and (<= ?x21 ?x22) (and $x121 (and $x161 $x194))))))))))))))))))))))))))))))))
)
)
)
)
)
)
)
)
)
)
(check-sat)
(exit)

